myproject/instances/20nodes/rnd18_20.tsp
NAME : rnd18_20.tsp
TYPE : TSP
DIMENSION : 20
EDGE_WEIGHT_TYPE : EUC_2D
NODE_COORD_SECTION
1 363 529
2 751 610
3 19 405
4 764 74
5 558 150
6 977 40
7 757 389
8 774 880
9 723 794
10 438 726
11 148 259
12 628 205
13 131 877
14 180 664
15 368 375
16 469 722
17 980 288
18 757 844
19 436 885
20 449 125
