myproject/instances/20nodes/rnd18_20.opt.tour
NAME : rnd18_20.tsp.tsp.opt.tour
TYPE : TOUR
DIMENSION : 20
TOUR_SECTION
1
4
13
17
18
11
5
14
12
10
2
19
15
20
7
3
9
16
6
8
-1